\ LP format - for model browsing. Use MPS format to capture full model detail.
Maximize
obj:   x[1] + x[4] + x[5] + x[102] + x[106] + x[108] + x[110] + x[83] + x[150]
   + x[117] + x[22] + x[23] + x[120] + x[89] + x[126] + x[31] + x[2]
   + x[64] + x[6] + x[49] + x[8] + x[74] + x[45] + x[113] + x[147] + x[84]
   + x[30] + x[118] + x[119] + x[24] + x[25] + x[70] + x[58] + x[134]
   + x[3] + x[98] + x[77] + x[51] + x[52] + x[116] + x[90] + x[63] + x[29]
   + x[62] + x[127] + x[34] + x[100] + x[81] + x[47] + x[18] + x[143]
   + x[93] + x[72] + x[137] + x[13] + x[148] + x[122] + x[125] + x[33]
   + x[99] + x[40] + x[55] + x[28] + x[7] + x[27] + x[103] + x[10] + x[76]
   + x[111] + x[20] + x[149] + x[26] + x[123] + x[138] + x[95] + x[80]
   + x[130] + x[39] + x[109] + x[48] + x[114] + x[85] + x[9] + x[32]
   + x[65] + x[66] + x[91] + x[68] + x[107] + x[17] + x[82] + x[115]
   + x[59] + x[144] + x[41] + x[43] + x[44] + x[112] + x[88] + x[121]
   + x[11] + x[129] + x[105] + x[12] + x[96] + x[35] + x[36] + x[142]
   + x[15] + x[146] + x[57] + x[140] + x[14] + x[73] + x[75] + x[78]
   + x[71] + x[92] + x[16] + x[67] + x[69] + x[104] + x[56] + x[37] + x[60]
   + x[141] + x[19] + x[132] + x[139] + x[145] + x[101] + x[21] + x[133]
   + x[42] + x[46] + x[54] + x[135] + x[53] + x[61] + x[128] + x[136]
   + x[50] + x[79] + x[94] + x[97] + x[124] + x[131] + x[87] + x[38]
   + x[86]
Subject To
 clq1: x[120] + x[25] + x[149] <= 1
 clq2: x[83] + x[120] + x[107] <= 1
 clq3: x[106] + x[47] + x[59] <= 1
 clq4: x[83] + x[118] + x[130] <= 1
 clq5: x[2] + x[49] + x[25] <= 1
 clq6: x[30] + x[40] + x[69] <= 1
 clq7: x[102] + x[34] + x[111] <= 1
 clq8: x[120] + x[34] + x[60] <= 1
 clq9: x[106] + x[90] + x[143] <= 1
 clq10: x[83] + x[69] + x[104] + x[19] <= 1
 clq11: x[118] + x[77] + x[105] <= 1
 clq12: x[25] + x[55] + x[80] <= 1
 clq13: x[63] + x[100] + x[123] <= 1
 clq14: x[31] + x[40] + x[140] <= 1
 clq15: x[134] + x[39] + x[88] <= 1
 clq16: x[102] + x[91] + x[96] <= 1
 clq17: x[110] + x[39] + x[61] <= 1
 clq18: x[120] + x[58] + x[104] + x[132] <= 1
 clq19: x[113] + x[59] + x[35] <= 1
 clq20: x[25] + x[52] + x[99] <= 1
 clq21: x[106] + x[100] + x[121] <= 1
 clq22: x[2] + x[30] + x[118] <= 1
 clq23: x[24] + x[107] + x[42] <= 1
 clq24: x[98] + x[7] + x[27] <= 1
 clq25: x[31] + x[63] + x[56] + x[124] <= 1
 clq26: x[13] + x[9] <= 1
 clq27: x[40] + x[149] + x[107] <= 1
 clq28: x[126] + x[41] + x[44] <= 1
 clq29: x[137] + x[80] + x[21] <= 1
 clq30: x[102] + x[47] + x[85] <= 1
 clq31: x[108] + x[110] + x[70] <= 1
 clq32: x[83] + x[113] + x[20] <= 1
 clq33: x[77] + x[17] + x[140] <= 1
 clq34: x[4] + x[90] + x[34] <= 1
 clq35: x[13] + x[33] <= 1
 clq36: x[148] + x[35] <= 1
 clq37: x[99] + x[111] <= 1
 clq38: x[40] + x[55] + x[115] <= 1
 clq39: x[26] + x[37] <= 1
 clq40: x[10] + x[41] + x[88] <= 1
 clq41: x[65] + x[96] <= 1
 clq42: x[106] + x[49] + x[135] <= 1
 clq43: x[150] + x[149] + x[131] <= 1
 clq44: x[120] + x[76] + x[142] <= 1
 clq45: x[84] + x[98] + x[123] <= 1
 clq46: x[118] + x[72] + x[33] <= 1
 clq47: x[24] + x[32] + x[37] <= 1
 clq48: x[25] + x[148] + x[37] <= 1
 clq49: x[58] + x[137] + x[99] <= 1
 clq50: x[13] + x[76] + x[140] <= 1
 clq51: x[30] + x[7] + x[111] <= 1
 clq52: x[127] + x[26] + x[9] <= 1
 clq53: x[39] + x[146] <= 1
 clq54: x[44] + x[21] + x[42] <= 1
 clq55: x[100] + x[96] + x[60] <= 1
 clq56: x[18] + x[66] + x[69] <= 1
 clq57: x[92] + x[101] <= 1
 clq58: x[1] + x[102] <= 1
 clq59: x[108] + x[113] + x[146] <= 1
 clq60: x[110] + x[75] <= 1
 clq61: x[1] + x[5] + x[108] + x[83] <= 1
 clq62: x[2] + x[45] <= 1
 clq63: x[119] + x[35] + x[53] <= 1
 clq64: x[119] + x[77] + x[47] <= 1
 clq65: x[51] + x[130] + x[105] <= 1
 clq66: x[116] + x[39] + x[54] <= 1
 clq67: x[90] + x[26] + x[61] <= 1
 clq68: x[63] + x[143] <= 1
 clq69: x[34] + x[55] + x[103] + x[87] <= 1
 clq70: x[113] + x[93] + x[101] <= 1
 clq71: x[80] + x[115] <= 1
 clq72: x[45] + x[88] <= 1
 clq73: x[70] + x[56] <= 1
 clq74: x[51] + x[65] + x[86] <= 1
 clq75: x[102] + x[143] <= 1
 clq76: x[106] + x[148] + x[136] <= 1
 clq77: x[110] + x[74] + x[32] <= 1
 clq78: x[150] + x[58] + x[41] <= 1
 clq79: x[117] + x[9] + x[59] <= 1
 clq80: x[120] + x[144] <= 1
 clq81: x[2] + x[6] + x[84] <= 1
 clq82: x[64] + x[99] + x[135] <= 1
 clq83: x[118] + x[34] + x[131] <= 1
 clq84: x[24] + x[130] + x[11] <= 1
 clq85: x[25] + x[75] + x[145] <= 1
 clq86: x[98] + x[66] + x[46] <= 1
 clq87: x[63] + x[142] + x[79] <= 1
 clq88: x[29] + x[44] <= 1
 clq89: x[13] + x[144] + x[146] <= 1
 clq90: x[125] + x[21] <= 1
 clq91: x[40] + x[129] <= 1
 clq92: x[52] + x[111] + x[129] <= 1
 clq93: x[28] + x[20] + x[101] <= 1
 clq94: x[117] + x[149] + x[56] + x[38] <= 1
 clq95: x[7] + x[138] + x[95] <= 1
 clq96: x[70] + x[80] + x[96] <= 1
 clq97: x[47] + x[115] + x[78] <= 1
 clq98: x[122] + x[88] + x[35] <= 1
 clq99: x[33] + x[92] <= 1
 clq100: x[16] + x[69] <= 1
 clq101: x[102] + x[134] <= 1
 clq102: x[120] + x[100] + x[105] <= 1
 clq103: x[89] + x[53] + x[124] <= 1
 clq104: x[126] + x[69] <= 1
 clq105: x[31] + x[73] + x[21] <= 1
 clq106: x[8] + x[20] + x[39] <= 1
 clq107: x[45] + x[67] <= 1
 clq108: x[77] + x[16] <= 1
 clq109: x[116] + x[93] + x[40] <= 1
 clq110: x[98] + x[90] + x[107] <= 1
 clq111: x[29] + x[72] <= 1
 clq112: x[58] + x[143] + x[92] <= 1
 clq113: x[125] + x[140] + x[101] <= 1
 clq114: x[99] + x[91] + x[144] <= 1
 clq115: x[44] + x[92] + x[86] <= 1
 clq116: x[20] + x[41] + x[57] <= 1
 clq117: x[33] + x[114] + x[132] <= 1
 clq118: x[69] + x[61] <= 1
 clq119: x[102] + x[64] + x[16] <= 1
 clq120: x[106] + x[97] <= 1
 clq121: x[110] + x[134] <= 1
 clq122: x[83] + x[131] <= 1
 clq123: x[150] + x[71] <= 1
 clq124: x[22] + x[84] + x[36] <= 1
 clq125: x[23] + x[103] <= 1
 clq126: x[126] + x[13] <= 1
 clq127: x[2] + x[74] + x[70] <= 1
 clq128: x[49] + x[72] <= 1
 clq129: x[45] + x[29] + x[65] <= 1
 clq130: x[30] + x[67] <= 1
 clq131: x[118] + x[12] <= 1
 clq132: x[24] + x[77] <= 1
 clq133: x[25] + x[88] <= 1
 clq134: x[3] + x[63] + x[62] <= 1
 clq135: x[117] + x[81] + x[80] <= 1
 clq136: x[137] + x[148] + x[92] <= 1
 clq137: x[70] + x[55] + x[142] <= 1
 clq138: x[27] + x[95] + x[144] <= 1
 clq139: x[111] + x[48] <= 1
 clq140: x[26] + x[19] <= 1
 clq141: x[138] + x[112] + x[11] <= 1
 clq142: x[9] + x[82] <= 1
 clq143: x[32] + x[46] <= 1
 clq144: x[115] + x[35] + x[140] <= 1
 clq145: x[10] + x[44] + x[121] <= 1
 clq146: x[72] + x[12] + x[96] <= 1
 clq147: x[35] + x[75] + x[97] <= 1
 clq148: x[78] + x[67] <= 1
 clq149: x[60] + x[133] <= 1
 clq150: x[135] + x[61] <= 1
 clq151: x[1] + x[106] + x[150] <= 1
 clq152: x[110] + x[8] <= 1
 clq153: x[83] + x[132] <= 1
 clq154: x[23] + x[89] + x[90] <= 1
 clq155: x[120] + x[49] + x[82] <= 1
 clq156: x[126] + x[125] + x[37] <= 1
 clq157: x[31] + x[71] <= 1
 clq158: x[113] + x[66] <= 1
 clq159: x[30] + x[34] + x[129] <= 1
 clq160: x[118] + x[146] + x[73] <= 1
 clq161: x[119] + x[100] + x[138] <= 1
 clq162: x[24] + x[100] + x[139] <= 1
 clq163: x[25] + x[7] <= 1
 clq164: x[134] + x[91] + x[131] <= 1
 clq165: x[77] + x[86] <= 1
 clq166: x[51] + x[40] <= 1
 clq167: x[52] + x[11] + x[105] <= 1
 clq168: x[116] + x[143] + x[69] <= 1
 clq169: x[47] + x[41] + x[135] <= 1
 clq170: x[74] + x[93] + x[13] <= 1
 clq171: x[28] + x[103] <= 1
 clq172: x[111] + x[107] + x[105] <= 1
 clq173: x[7] + x[149] + x[123] <= 1
 clq174: x[26] + x[57] + x[104] <= 1
 clq175: x[33] + x[39] <= 1
 clq176: x[48] + x[9] <= 1
 clq177: x[32] + x[19] <= 1
 clq178: x[59] + x[112] + x[88] <= 1
 clq179: x[78] + x[53] <= 1
 clq180: x[56] + x[46] <= 1
 clq181: x[40] + x[60] <= 1
 clq182: x[66] + x[36] + x[21] <= 1
 clq183: x[137] + x[61] <= 1
 clq184: x[122] + x[50] <= 1
 clq185: x[98] + x[94] <= 1
 clq186: x[4] + x[81] <= 1
 clq187: x[102] + x[51] <= 1
 clq188: x[108] + x[130] <= 1
 clq189: x[110] + x[16] + x[56] <= 1
 clq190: x[83] + x[78] + x[71] <= 1
 clq191: x[22] + x[68] <= 1
 clq192: x[31] + x[61] <= 1
 clq193: x[5] + x[2] + x[8] <= 1
 clq194: x[64] + x[48] <= 1
 clq195: x[45] + x[14] + x[75] <= 1
 clq196: x[113] + x[65] <= 1
 clq197: x[84] + x[39] <= 1
 clq198: x[25] + x[50] <= 1
 clq199: x[58] + x[145] <= 1
 clq200: x[150] + x[77] + x[79] <= 1
 clq201: x[63] + x[87] + x[86] <= 1
 clq202: x[29] + x[18] <= 1
 clq203: x[148] + x[9] + x[65] <= 1
 clq204: x[99] + x[103] <= 1
 clq205: x[55] + x[19] <= 1
 clq206: x[28] + x[42] <= 1
 clq207: x[27] + x[94] <= 1
 clq208: x[76] + x[42] <= 1
 clq209: x[95] + x[131] + x[87] <= 1
 clq210: x[80] + x[67] <= 1
 clq211: x[32] + x[129] <= 1
 clq212: x[115] + x[133] <= 1
 clq213: x[43] + x[60] <= 1
 clq214: x[13] + x[121] + x[15] <= 1
 clq215: x[96] + x[53] <= 1
 clq216: x[68] + x[142] <= 1
 clq217: x[141] + x[19] + x[132] <= 1
 clq218: x[47] + x[46] <= 1
 clq219: x[1] + x[4] <= 1
 clq220: x[102] + x[33] <= 1
 clq221: x[106] + x[67] <= 1
 clq222: x[108] + x[58] + x[81] <= 1
 clq223: x[22] + x[98] + x[73] <= 1
 clq224: x[23] + x[122] <= 1
 clq225: x[120] + x[130] + x[94] <= 1
 clq226: x[89] + x[12] <= 1
 clq227: x[126] + x[107] + x[35] <= 1
 clq228: x[31] + x[10] <= 1
 clq229: x[64] + x[104] <= 1
 clq230: x[6] + x[99] <= 1
 clq231: x[49] + x[130] + x[140] <= 1
 clq232: x[113] + x[133] <= 1
 clq233: x[84] + x[139] <= 1
 clq234: x[30] + x[97] <= 1
 clq235: x[118] + x[53] + x[97] <= 1
 clq236: x[119] + x[101] + x[79] <= 1
 clq237: x[24] + x[51] + x[61] <= 1
 clq238: x[25] + x[47] + x[136] <= 1
 clq239: x[134] + x[48] <= 1
 clq240: x[3] + x[52] <= 1
 clq241: x[116] + x[21] <= 1
 clq242: x[70] + x[90] + x[39] <= 1
 clq243: x[29] + x[55] <= 1
 clq244: x[62] + x[99] + x[69] <= 1
 clq245: x[18] + x[37] <= 1
 clq246: x[143] + x[149] <= 1
 clq247: x[93] + x[80] <= 1
 clq248: x[72] + x[145] <= 1
 clq249: x[137] + x[132] <= 1
 clq250: x[125] + x[142] <= 1
 clq251: x[40] + x[27] <= 1
 clq252: x[28] + x[88] + x[71] <= 1
 clq253: x[7] + x[103] <= 1
 clq254: x[76] + x[91] <= 1
 clq255: x[111] + x[109] <= 1
 clq256: x[8] + x[26] <= 1
 clq257: x[123] + x[85] <= 1
 clq258: x[114] + x[68] <= 1
 clq259: x[102] + x[32] <= 1
 clq260: x[138] + x[82] + x[59] <= 1
 clq261: x[115] + x[36] <= 1
 clq262: x[43] + x[135] <= 1
 clq263: x[44] + x[75] <= 1
 clq264: x[41] + x[96] <= 1
 clq265: x[57] + x[141] + x[50] <= 1
 clq266: x[77] + x[60] <= 1
 clq267: x[46] + x[38] <= 1
 clq268: x[42] + x[54] <= 1
 clq269: x[1] + x[110] + x[117] <= 1
 clq270: x[4] + x[74] <= 1
 clq271: x[106] + x[133] <= 1
 clq272: x[83] + x[43] <= 1
 clq273: x[23] + x[3] <= 1
 clq274: x[89] + x[2] <= 1
 clq275: x[31] + x[84] <= 1
 clq276: x[64] + x[63] <= 1
 clq277: x[6] + x[33] + x[40] <= 1
 clq278: x[45] + x[17] <= 1
 clq279: x[113] + x[14] + x[78] <= 1
 clq280: x[30] + x[137] <= 1
 clq281: x[134] + x[104] <= 1
 clq282: x[52] + x[72] <= 1
 clq283: x[116] + x[123] <= 1
 clq284: x[29] + x[11] <= 1
 clq285: x[34] + x[139] <= 1
 clq286: x[18] + x[10] <= 1
 clq287: x[143] + x[21] <= 1
 clq288: x[93] + x[148] <= 1
 clq289: x[122] + x[55] <= 1
 clq290: x[125] + x[146] <= 1
 clq291: x[27] + x[114] <= 1
 clq292: x[103] + x[142] <= 1
 clq293: x[76] + x[66] <= 1
 clq294: x[111] + x[121] <= 1
 clq295: x[20] + x[109] <= 1
 clq296: x[149] + x[85] <= 1
 clq297: x[7] + x[26] <= 1
 clq298: x[95] + x[48] <= 1
 clq299: x[80] + x[44] <= 1
 clq300: x[9] + x[115] <= 1
 clq301: x[9] + x[32] <= 1
 clq302: x[91] + x[129] <= 1
 clq303: x[12] + x[35] + x[36] <= 1
 clq304: x[96] + x[16] <= 1
 clq305: x[67] + x[145] <= 1
 clq306: x[56] + x[60] <= 1
 clq307: x[37] + x[135] <= 1
 clq308: x[85] + x[46] + x[86] <= 1
 clq309: x[65] + x[54] <= 1
 clq310: x[4] + x[100] <= 1
 clq311: x[5] + x[72] <= 1
 clq312: x[102] + x[66] <= 1
 clq313: x[106] + x[81] <= 1
 clq314: x[108] + x[144] <= 1
 clq315: x[83] + x[109] + x[38] <= 1
 clq316: x[150] + x[104] <= 1
 clq317: x[22] + x[44] <= 1
 clq318: x[23] + x[135] <= 1
 clq319: x[120] + x[57] <= 1
 clq320: x[89] + x[75] <= 1
 clq321: x[126] + x[115] <= 1
 clq322: x[31] + x[116] <= 1
 clq323: x[2] + x[134] <= 1
 clq324: x[64] + x[13] <= 1
 clq325: x[49] + x[142] <= 1
 clq326: x[8] + x[48] <= 1
 clq327: x[74] + x[37] <= 1
 clq328: x[45] + x[69] <= 1
 clq329: x[84] + x[77] <= 1
 clq330: x[30] + x[133] <= 1
 clq331: x[118] + x[16] <= 1
 clq332: x[119] + x[50] <= 1
 clq333: x[24] + x[53] <= 1
 clq334: x[25] + x[54] <= 1
 clq335: x[58] + x[107] <= 1
 clq336: x[3] + x[98] <= 1
 clq337: x[51] + x[136] <= 1
 clq338: x[52] + x[140] <= 1
 clq339: x[90] + x[139] <= 1
 clq340: x[63] + x[50] + x[131] <= 1
 clq341: x[3] + x[29] <= 1
 clq342: x[62] + x[76] <= 1
 clq343: x[34] + x[65] + x[11] <= 1
 clq344: x[18] + x[92] <= 1
 clq345: x[143] + x[123] <= 1
 clq346: x[93] + x[26] <= 1
 clq347: x[137] + x[42] <= 1
 clq348: x[148] + x[129] <= 1
 clq349: x[122] + x[39] <= 1
 clq350: x[5] + x[125] <= 1
 clq351: x[55] + x[10] <= 1
 clq352: x[28] + x[149] <= 1
 clq353: x[122] + x[27] + x[96] <= 1
 clq354: x[103] + x[132] <= 1
 clq355: x[111] + x[59] <= 1
 clq356: x[134] + x[20] <= 1
 clq357: x[102] + x[95] <= 1
 clq358: x[80] + x[73] <= 1
 clq359: x[114] + x[88] <= 1
 clq360: x[32] + x[128] <= 1
 clq361: x[91] + x[41] + x[56] <= 1
 clq362: x[68] + x[101] <= 1
 clq363: x[9] + x[17] <= 1
 clq364: x[82] + x[105] <= 1
 clq365: x[43] + x[21] <= 1
 clq366: x[112] + x[67] <= 1
 clq367: x[121] + x[16] <= 1
 clq368: x[146] + x[135] <= 1
 clq369: x[60] + x[19] <= 1
 clq370: x[145] + x[97] <= 1
 clq371: x[129] + x[61] <= 1
 clq372: x[67] + x[94] <= 1
 clq373: x[1] + x[22] <= 1
 clq374: x[4] + x[47] <= 1
 clq375: x[106] + x[82] <= 1
 clq376: x[108] + x[114] <= 1
 clq377: x[110] + x[107] <= 1
 clq378: x[150] + x[80] <= 1
 clq379: x[23] + x[71] <= 1
 clq380: x[120] + x[33] <= 1
 clq381: x[89] + x[52] <= 1
 clq382: x[126] + x[118] <= 1
 clq383: x[31] + x[148] <= 1
 clq384: x[2] + x[113] <= 1
 clq385: x[2] + x[64] + x[119] <= 1
 clq386: x[6] + x[55] <= 1
 clq387: x[49] + x[104] + x[53] <= 1
 clq388: x[8] + x[138] <= 1
 clq389: x[74] + x[40] <= 1
 clq390: x[45] + x[77] + x[93] <= 1
 clq391: x[147] + x[79] <= 1
 clq392: x[84] + x[142] <= 1
 clq393: x[30] + x[39] + x[82] <= 1
 clq394: x[24] + x[14] <= 1
 clq395: x[25] + x[66] <= 1
 clq396: x[58] + x[140] <= 1
 clq397: x[98] + x[37] <= 1
 clq398: x[51] + x[48] <= 1
 clq399: x[116] + x[15] <= 1
 clq400: x[90] + x[18] + x[141] <= 1
 clq401: x[29] + x[136] <= 1
 clq402: x[62] + x[149] <= 1
 clq403: x[127] + x[10] <= 1
 clq404: x[100] + x[133] <= 1
 clq405: x[81] + x[129] + x[132] <= 1
 clq406: x[22] + x[143] + x[78] <= 1
 clq407: x[72] + x[101] <= 1
 clq408: x[137] + x[7] + x[20] <= 1
 clq409: x[13] + x[57] <= 1
 clq410: x[125] + x[123] <= 1
 clq411: x[99] + x[68] <= 1
 clq412: x[28] + x[60] <= 1
 clq413: x[103] + x[86] <= 1
 clq414: x[76] + x[144] <= 1
 clq415: x[111] + x[61] <= 1
 clq416: x[26] + x[146] <= 1
 clq417: x[74] + x[95] <= 1
 clq418: x[32] + x[42] <= 1
 clq419: x[102] + x[17] <= 1
 clq420: x[115] + x[105] <= 1
 clq421: x[59] + x[75] <= 1
 clq422: x[10] + x[43] <= 1
 clq423: x[44] + x[12] <= 1
 clq424: x[112] + x[19] <= 1
 clq425: x[88] + x[121] <= 1
 clq426: x[33] + x[73] + x[75] <= 1
 clq427: x[92] + x[46] <= 1
 clq428: x[100] + x[69] <= 1
 clq429: x[139] + x[97] <= 1
 clq430: x[70] + x[145] <= 1
 clq431: x[21] + x[54] <= 1
 clq432: x[101] + x[128] <= 1
 clq433: x[133] + x[94] <= 1
 clq434: x[130] + x[124] <= 1
 clq435: x[1] + x[23] + x[126] <= 1
 clq436: x[4] + x[113] + x[143] <= 1
 clq437: x[5] + x[137] + x[13] <= 1
 clq438: x[106] + x[19] <= 1
 clq439: x[108] + x[147] <= 1
 clq440: x[110] + x[12] <= 1
 clq441: x[83] + x[7] + x[76] <= 1
 clq442: x[150] + x[9] <= 1
 clq443: x[117] + x[140] <= 1
 clq444: x[120] + x[59] + x[12] <= 1
 clq445: x[89] + x[116] <= 1
 clq446: x[31] + x[121] <= 1
 clq447: x[6] + x[63] + x[47] <= 1
 clq448: x[8] + x[109] <= 1
 clq449: x[84] + x[38] <= 1
 clq450: x[118] + x[144] + x[60] <= 1
 clq451: x[24] + x[55] <= 1
 clq452: x[25] + x[62] <= 1
 clq453: x[58] + x[14] <= 1
 clq454: x[134] + x[97] <= 1
 clq455: x[3] + x[51] <= 1
 clq456: x[98] + x[136] <= 1
 clq457: x[52] + x[44] + x[56] <= 1
 clq458: x[106] + x[29] <= 1
 clq459: x[127] + x[115] <= 1
 clq460: x[34] + x[48] <= 1
 clq461: x[72] + x[42] <= 1
 clq462: x[148] + x[43] <= 1
 clq463: x[70] + x[125] <= 1
 clq464: x[99] + x[54] <= 1
 clq465: x[40] + x[67] + x[86] <= 1
 clq466: x[28] + x[37] <= 1
 clq467: x[27] + x[36] <= 1
 clq468: x[103] + x[41] <= 1
 clq469: x[111] + x[131] <= 1
 clq470: x[149] + x[11] <= 1
 clq471: x[26] + x[79] <= 1
 clq472: x[123] + x[91] <= 1
 clq473: x[138] + x[57] <= 1
 clq474: x[95] + x[140] <= 1
 clq475: x[80] + x[17] <= 1
 clq476: x[114] + x[69] <= 1
 clq477: x[85] + x[96] <= 1
 clq478: x[32] + x[88] <= 1
 clq479: x[66] + x[135] <= 1
 clq480: x[39] + x[68] <= 1
 clq481: x[107] + x[131] <= 1
 clq482: x[130] + x[112] <= 1
 clq483: x[105] + x[139] <= 1
 clq484: x[142] + x[128] <= 1
 clq485: x[66] + x[15] + x[71] <= 1
 clq486: x[72] + x[146] <= 1
 clq487: x[51] + x[92] <= 1
 clq488: x[34] + x[16] <= 1
 clq489: x[100] + x[145] <= 1
 clq490: x[21] + x[46] <= 1
 clq491: x[46] + x[61] <= 1
 clq492: x[103] + x[94] <= 1
 clq493: x[36] + x[124] <= 1
 clq494: x[102] + x[107] <= 1
 clq495: x[108] + x[28] <= 1
 clq496: x[110] + x[49] <= 1
 clq497: x[150] + x[122] <= 1
 clq498: x[117] + x[87] <= 1
 clq499: x[89] + x[57] <= 1
 clq500: x[31] + x[27] <= 1
 clq501: x[64] + x[58] <= 1
 clq502: x[8] + x[85] <= 1
 clq503: x[74] + x[73] <= 1
 clq504: x[45] + x[90] <= 1
 clq505: x[147] + x[17] <= 1
 clq506: x[84] + x[94] <= 1
 clq507: x[30] + x[141] <= 1
 clq508: x[119] + x[121] <= 1
 clq509: x[24] + x[91] <= 1
 clq510: x[25] + x[127] <= 1
 clq511: x[134] + x[81] <= 1
 clq512: x[3] + x[116] <= 1
 clq513: x[98] + x[42] <= 1
 clq514: x[77] + x[114] <= 1
 clq515: x[29] + x[14] <= 1
 clq516: x[74] + x[62] <= 1
 clq517: x[18] + x[17] <= 1
 clq518: x[147] + x[93] <= 1
 clq519: x[148] + x[139] <= 1
 clq520: x[125] + x[104] <= 1
 clq521: x[99] + x[19] <= 1
 clq522: x[55] + x[123] <= 1
 clq523: x[10] + x[138] <= 1
 clq524: x[111] + x[50] <= 1
 clq525: x[51] + x[20] + x[142] <= 1
 clq526: x[149] + x[144] <= 1
 clq527: x[49] + x[26] <= 1
 clq528: x[106] + x[95] <= 1
 clq529: x[80] + x[43] <= 1
 clq530: x[109] + x[41] <= 1
 clq531: x[48] + x[132] <= 1
 clq532: x[9] + x[68] <= 1
 clq533: x[89] + x[32] <= 1
 clq534: x[52] + x[65] + x[121] <= 1
 clq535: x[115] + x[11] <= 1
 clq536: x[112] + x[96] <= 1
 clq537: x[34] + x[88] <= 1
 clq538: x[105] + x[146] <= 1
 clq539: x[78] + x[79] <= 1
 clq540: x[76] + x[92] <= 1
 clq541: x[59] + x[16] <= 1
 clq542: x[33] + x[69] <= 1
 clq543: x[37] + x[133] <= 1
 clq544: x[145] + x[135] <= 1
 clq545: x[101] + x[53] <= 1
 clq546: x[81] + x[21] <= 1
 clq547: x[54] + x[61] <= 1
 clq548: x[128] + x[136] <= 1
 clq549: x[60] + x[124] <= 1
 clq550: x[36] + x[38] <= 1
 clq551: x[1] + x[31] <= 1
 clq552: x[4] + x[18] <= 1
 clq553: x[5] + x[122] <= 1
 clq554: x[102] + x[62] <= 1
 clq555: x[108] + x[64] <= 1
 clq556: x[110] + x[82] <= 1
 clq557: x[83] + x[97] <= 1
 clq558: x[150] + x[116] <= 1
 clq559: x[117] + x[32] <= 1
 clq560: x[22] + x[118] <= 1
 clq561: x[23] + x[26] <= 1
 clq562: x[120] + x[124] <= 1
 clq563: x[126] + x[130] <= 1
 clq564: x[2] + x[58] <= 1
 clq565: x[6] + x[25] <= 1
 clq566: x[8] + x[114] <= 1
 clq567: x[45] + x[50] <= 1
 clq568: x[113] + x[98] <= 1
 clq569: x[84] + x[112] <= 1
 clq570: x[30] + x[92] <= 1
 clq571: x[119] + x[26] <= 1
 clq572: x[24] + x[88] <= 1
 clq573: x[70] + x[11] <= 1
 clq574: x[134] + x[140] <= 1
 clq575: x[3] + x[90] <= 1
 clq576: x[77] + x[33] <= 1
 clq577: x[63] + x[57] <= 1
 clq578: x[30] + x[29] <= 1
 clq579: x[127] + x[78] <= 1
 clq580: x[100] + x[129] <= 1
 clq581: x[47] + x[69] <= 1
 clq582: x[93] + x[91] <= 1
 clq583: x[72] + x[115] <= 1
 clq584: x[13] + x[27] <= 1
 clq585: x[148] + x[59] <= 1
 clq586: x[83] + x[125] <= 1
 clq587: x[99] + x[14] + x[73] <= 1
 clq588: x[40] + x[68] <= 1
 clq589: x[55] + x[54] <= 1
 clq590: x[28] + x[95] <= 1
 clq591: x[103] + x[53] <= 1
 clq592: x[10] + x[112] <= 1
 clq593: x[111] + x[141] <= 1
 clq594: x[149] + x[139] <= 1
 clq595: x[123] + x[35] <= 1
 clq596: x[138] + x[87] <= 1
 clq597: x[34] + x[80] <= 1
 clq598: x[39] + x[43] <= 1
 clq599: x[109] + x[69] <= 1
 clq600: x[48] + x[44] <= 1
 clq601: x[85] + x[101] <= 1
 clq602: x[9] + x[91] + x[107] <= 1
 clq603: x[41] + x[67] <= 1
 clq604: x[105] + x[21] <= 1
 clq605: x[82] + x[96] <= 1
 clq606: x[43] + x[15] <= 1
 clq607: x[146] + x[131] <= 1
 clq608: x[75] + x[71] <= 1
 clq609: x[16] + x[104] <= 1
 clq610: x[56] + x[132] <= 1
 clq611: x[37] + x[86] <= 1
 clq612: x[19] + x[145] <= 1
 clq613: x[133] + x[38] <= 1
 clq614: x[42] + x[135] <= 1
 clq615: x[46] + x[79] <= 1
 clq616: x[44] + x[61] <= 1
 clq617: x[25] + x[128] <= 1
 clq618: x[132] + x[136] <= 1
 clq619: x[137] + x[94] <= 1
 clq620: x[1] + x[89] <= 1
 clq621: x[4] + x[84] <= 1
 clq622: x[5] + x[148] <= 1
 clq623: x[102] + x[38] <= 1
 clq624: x[106] + x[147] <= 1
 clq625: x[108] + x[96] <= 1
 clq626: x[110] + x[125] <= 1
 clq627: x[150] + x[29] <= 1
 clq628: x[117] + x[12] <= 1
 clq629: x[22] + x[17] <= 1
 clq630: x[23] + x[76] <= 1
 clq631: x[120] + x[61] <= 1
 clq632: x[126] + x[95] <= 1
 clq633: x[31] + x[32] <= 1
 clq634: x[2] + x[24] <= 1
 clq635: x[64] + x[71] <= 1
 clq636: x[6] + x[58] <= 1
 clq637: x[49] + x[143] <= 1
 clq638: x[8] + x[130] <= 1
 clq639: x[74] + x[122] <= 1
 clq640: x[45] + x[19] <= 1
 clq641: x[113] + x[114] <= 1
 clq642: x[118] + x[27] <= 1
 clq643: x[119] + x[124] <= 1
 clq644: x[70] + x[35] <= 1
 clq645: x[134] + x[116] <= 1
 clq646: x[3] + x[77] <= 1
 clq647: x[98] + x[11] <= 1
 clq648: x[90] + x[66] <= 1
 clq649: x[63] + x[93] <= 1
 clq650: x[62] + x[36] <= 1
 clq651: x[3] + x[127] <= 1
 clq652: x[100] + x[149] <= 1
 clq653: x[81] + x[13] <= 1
 clq654: x[47] + x[48] <= 1
 clq655: x[18] + x[60] <= 1
 clq656: x[72] + x[15] <= 1
 clq657: x[40] + x[53] <= 1
 clq658: x[98] + x[55] <= 1
 clq659: x[113] + x[28] <= 1
 clq660: x[7] + x[10] <= 1
 clq661: x[103] + x[80] <= 1
 clq662: x[111] + x[94] <= 1
 clq663: x[20] + x[85] <= 1
 clq664: x[123] + x[65] <= 1
 clq665: x[138] + x[54] <= 1
 clq666: x[39] + x[115] <= 1
 clq667: x[109] + x[78] <= 1
 clq668: x[68] + x[57] <= 1
 clq669: x[65] + x[144] <= 1
 clq670: x[41] + x[97] <= 1
 clq671: x[130] + x[88] <= 1
 clq672: x[129] + x[37] <= 1
 clq673: x[105] + x[79] <= 1
 clq674: x[59] + x[142] <= 1
 clq675: x[146] + x[141] <= 1
 clq676: x[68] + x[140] <= 1
 clq677: x[43] + x[75] <= 1
 clq678: x[70] + x[92] <= 1
 clq679: x[16] + x[67] <= 1
 clq680: x[104] + x[42] <= 1
 clq681: x[56] + x[101] <= 1
 clq682: x[139] + x[135] <= 1
 clq683: x[82] + x[145] <= 1
 clq684: x[21] + x[133] <= 1
 clq685: x[46] + x[87] <= 1
 clq686: x[105] + x[128] <= 1
 clq687: x[34] + x[136] <= 1
 clq688: x[58] + x[50] <= 1
 clq689: x[137] + x[131] <= 1
 clq690: x[71] + x[86] <= 1
 clq691: x[1] + x[120] <= 1
 clq692: x[4] + x[93] <= 1
 clq693: x[5] + x[89] <= 1
 clq694: x[102] + x[148] <= 1
 clq695: x[106] + x[117] <= 1
 clq696: x[108] + x[32] <= 1
 clq697: x[110] + x[62] <= 1
 clq698: x[83] + x[54] <= 1
 clq699: x[150] + x[119] <= 1
 clq700: x[22] + x[121] <= 1
 clq701: x[23] + x[45] <= 1
 clq702: x[126] + x[96] <= 1
 clq703: x[31] + x[29] <= 1
 clq704: x[2] + x[147] <= 1
 clq705: x[64] + x[61] <= 1
 clq706: x[6] + x[28] <= 1
 clq707: x[49] + x[56] <= 1
 clq708: x[8] + x[80] <= 1
 clq709: x[74] + x[107] <= 1
 clq710: x[84] + x[17] <= 1
 clq711: x[30] + x[143] <= 1
 clq712: x[118] + x[125] <= 1
 clq713: x[24] + x[116] <= 1
 clq714: x[25] + x[60] <= 1
 clq715: x[134] + x[55] <= 1
 clq716: x[77] + x[7] <= 1
 clq717: x[51] + x[149] <= 1
 clq718: x[52] + x[26] <= 1
 clq719: x[90] + x[138] <= 1
 clq720: x[63] + x[16] <= 1
 clq721: x[127] + x[95] <= 1
 clq722: x[100] + x[103] <= 1
 clq723: x[81] + x[39] <= 1
 clq724: x[47] + x[72] <= 1
 clq725: x[18] + x[27] <= 1
 clq726: x[13] + x[122] <= 1
 clq727: x[33] + x[21] <= 1
 clq728: x[99] + x[115] <= 1
 clq729: x[40] + x[38] <= 1
 clq730: x[10] + x[144] <= 1
 clq731: x[76] + x[20] <= 1
 clq732: x[111] + x[79] <= 1
 clq733: x[123] + x[132] <= 1
 clq734: x[109] + x[88] <= 1
 clq735: x[48] + x[53] <= 1
 clq736: x[114] + x[97] <= 1
 clq737: x[85] + x[136] <= 1
 clq738: x[9] + x[66] <= 1
 clq739: x[41] + x[131] <= 1
 clq740: x[44] + x[124] <= 1
 clq741: x[112] + x[140] <= 1
 clq742: x[11] + x[129] <= 1
 clq743: x[12] + x[142] <= 1
 clq744: x[35] + x[67] <= 1
 clq745: x[36] + x[42] <= 1
 clq746: x[15] + x[92] <= 1
 clq747: x[146] + x[14] <= 1
 clq748: x[57] + x[73] <= 1
 clq749: x[75] + x[69] <= 1
 clq750: x[78] + x[37] <= 1
 clq751: x[104] + x[86] <= 1
 clq752: x[141] + x[145] <= 1
 clq753: x[19] + x[139] <= 1
 clq754: x[101] + x[135] <= 1
 clq755: x[133] + x[128] <= 1
 clq756: x[46] + x[94] <= 1
 clq757: x[50] + x[87] <= 1
Bounds
Binaries
 x[1] x[4] x[5] x[102] x[106] x[108] x[110] x[83] x[150] x[117] x[22] x[23]
 x[120] x[89] x[126] x[31] x[2] x[64] x[6] x[49] x[8] x[74] x[45] x[113]
 x[147] x[84] x[30] x[118] x[119] x[24] x[25] x[70] x[58] x[134] x[3] x[98]
 x[77] x[51] x[52] x[116] x[90] x[63] x[29] x[62] x[127] x[34] x[100] x[81]
 x[47] x[18] x[143] x[93] x[72] x[137] x[13] x[148] x[122] x[125] x[33]
 x[99] x[40] x[55] x[28] x[7] x[27] x[103] x[10] x[76] x[111] x[20] x[149]
 x[26] x[123] x[138] x[95] x[80] x[130] x[39] x[109] x[48] x[114] x[85]
 x[9] x[32] x[65] x[66] x[91] x[68] x[107] x[17] x[82] x[115] x[59] x[144]
 x[41] x[43] x[44] x[112] x[88] x[121] x[11] x[129] x[105] x[12] x[96]
 x[35] x[36] x[142] x[15] x[146] x[57] x[140] x[14] x[73] x[75] x[78] x[71]
 x[92] x[16] x[67] x[69] x[104] x[56] x[37] x[60] x[141] x[19] x[132]
 x[139] x[145] x[101] x[21] x[133] x[42] x[46] x[54] x[135] x[53] x[61]
 x[128] x[136] x[50] x[79] x[94] x[97] x[124] x[131] x[87] x[38] x[86]
End
